



















































































31 60 
76 33 1 
47 59 
18 22 46 
25 39 
64 71 65 
66 41 9 
38 24 74 
52 53 
73 50 45 
7 14 
68 13 
16 54 2 
36 23 11 
42 51 57 
20 10 28 
35 63 
70 34 48 
72 30 
32 19 
17 6 
37 40 
43 0 
69 44 
29 75 3 
26 27 
56 12 4 
55 5 67 
62 21 
8 61 49 
58 15 
